Route #1: 95 59 92 42 15 98 14 38 44 16 61 86 85 99 94 6 84 49 46 48 60 17 91 100 93 89 
Route #2: 2 72 39 75 23 67 21 73 40 53 87 57 22 41 43 37 97 96 13 58 
Route #3: 33 65 63 31 69 52 27 28 12 29 76 30 71 9 51 81 79 78 34 3 50 26 54 56 74 4 55 25 24 80 
Route #4: 5 83 45 82 47 36 64 11 19 62 88 7 8 18 90 10 20 32 66 35 68 77 1 70 
Objective: 74694.0
